c Generated map
c Size: 8 * 8, weights in range: 1 to 10, walls: True, with ratio 0.1
c dim 10 of 10
c
p sp 64 91
c graph contains 64 nodes and 91 arcs
c
a 1 9 8
a 9 1 8
a 1 2 1
a 2 1 1
a 2 10 6
a 10 2 6
a 2 3 4
a 3 2 4
a 3 11 1
a 11 3 1
a 3 4 7
a 4 3 7
a 4 12 5
a 12 4 5
a 4 5 3
a 5 4 3
a 5 13 1
a 13 5 1
a 5 6 1
a 6 5 1
a 6 14 1
a 14 6 1
a 6 7 5
a 7 6 5
a 7 8 8
a 8 7 8
a 8 16 1
a 16 8 1
a 9 17 1
a 17 9 1
a 9 10 5
a 10 9 5
a 10 18 4
a 18 10 4
a 10 11 6
a 11 10 6
a 11 19 4
a 19 11 4
a 11 12 5
a 12 11 5
a 12 20 9
a 20 12 9
a 12 13 9
a 13 12 9
a 13 21 2
a 21 13 2
a 13 14 9
a 14 13 9
a 16 24 2
a 24 16 2
a 17 25 8
a 25 17 8
a 17 18 2
a 18 17 2
a 18 26 3
a 26 18 3
a 18 19 7
a 19 18 7
a 19 27 1
a 27 19 1
a 19 20 4
a 20 19 4
a 20 28 9
a 28 20 9
a 20 21 10
a 21 20 10
a 21 29 4
a 29 21 4
a 23 31 2
a 31 23 2
a 23 24 2
a 24 23 2
a 24 32 8
a 32 24 8
a 25 33 5
a 33 25 5
a 25 26 6
a 26 25 6
a 26 34 9
a 34 26 9
a 26 27 5
a 27 26 5
a 27 35 10
a 35 27 10
a 27 28 7
a 28 27 7
a 28 36 9
a 36 28 9
a 28 29 7
a 29 28 7
a 29 37 8
a 37 29 8
a 29 30 4
a 30 29 4
a 30 38 6
a 38 30 6
a 30 31 8
a 31 30 8
a 31 32 10
a 32 31 10
a 32 40 3
a 40 32 3
a 33 41 5
a 41 33 5
a 33 34 6
a 34 33 6
a 34 42 8
a 42 34 8
a 34 35 8
a 35 34 8
a 35 43 10
a 43 35 10
a 35 36 1
a 36 35 1
a 36 44 10
a 44 36 10
a 36 37 7
a 37 36 7
a 37 45 2
a 45 37 2
a 37 38 9
a 38 37 9
a 38 46 8
a 46 38 8
a 40 48 1
a 48 40 1
a 41 49 10
a 49 41 10
a 41 42 1
a 42 41 1
a 42 50 9
a 50 42 9
a 42 43 10
a 43 42 10
a 43 51 4
a 51 43 4
a 43 44 3
a 44 43 3
a 44 52 10
a 52 44 10
a 44 45 9
a 45 44 9
a 45 53 7
a 53 45 7
a 45 46 6
a 46 45 6
a 46 47 8
a 47 46 8
a 47 55 8
a 55 47 8
a 47 48 8
a 48 47 8
a 48 56 3
a 56 48 3
a 49 50 2
a 50 49 2
a 50 58 1
a 58 50 1
a 50 51 8
a 51 50 8
a 51 59 8
a 59 51 8
a 51 52 6
a 52 51 6
a 52 60 3
a 60 52 3
a 52 53 3
a 53 52 3
a 55 63 1
a 63 55 1
a 55 56 6
a 56 55 6
a 56 64 4
a 64 56 4
a 58 59 4
a 59 58 4
a 59 60 2
a 60 59 2
a 62 63 7
a 63 62 7
a 63 64 5
a 64 63 5
